1726479
0 11 10465
11 31 4813
31 55 1427
55 39 3489
39 4 3130
4 59 7979
59 22 7498
22 48 4353
48 18 8895
18 28 21654
28 24 9940
24 29 1249
29 40 5056
40 5 10602
5 41 29370
41 60 10110
60 23 5437
23 2 17954
2 46 33189
46 3 12782
3 19 4440
19 47 9225
47 1 7938
1 26 15575
26 16 1445
16 8 5356
8 57 1777
57 14 6904
14 7 6874
7 35 11459
35 58 8563
58 15 10880
15 44 34352
44 64 16726
64 12 18316
12 53 13536
53 62 51716
62 27 41601
27 49 10810
49 67 52828
67 34 19070
34 50 8926
50 38 11004
38 61 8740
61 36 30446
36 52 6554
52 43 84806
43 13 62420
13 9 62052
9 17 28652
17 56 27906
56 32 88918
32 51 101509
51 21 46274
21 30 39447
30 42 116978
42 45 69394
45 33 36286
33 54 20835
54 25 61621
25 65 57991
65 10 13370
10 63 35955
63 66 14572
66 6 19183
6 37 28523
37 20 42598
20 0 42736
